<CONFIG>
	<PRINCIPAL>
			<X>-4</X>
			<Y>-3</Y>
			<WIDTH>1600</WIDTH>
			<HEIGHT>845</HEIGHT>
			<TOOLBARSDOCKWIDGETS>AAAA/wAAAAD9AAAABAAAAAAAAAEAAAADOfwCAAAAA/sAAAAYAGMAbwBiAHIAYQByAGQAbwBjAGsAZQBkAAAAAAAAAAEWAAABFgEAAAX7AAAAHgBwAGwAdQBnAGkAbgB0AG8AdABhAGwAZABvAGMAawEAAAAAAAABngAAAAAAAAAA+wAAACYAdABlAGMAbABhAGQAbwBuAHUAbQBlAHIAaQBjAG8AZABvAGMAawEAAAGhAAABmAAAAUgAAAGgAAAAAQAAAQAAAAM5/AIAAAAC+wAAABgAdABpAGMAawBlAHQAYgBhAHMAaQBjAG8BAAAAAAAAAlcAAAAAAAAAAPwAAAJaAAAA3wAAALEAAADj+gAAAAABAAAAAvsAAAAuAHAAbAB1AGcAaQBuAG0AbwBkAGkAZgBpAGMAYQBkAG8AcgBlAHMAZABvAGMAawEAAAAA/////wAAAE0AAADd+wAAABoAcABhAG4AdABhAGwAbABhAHMAZABvAGMAawEAAAU4AAABAAAAAGkBAAAFAAAAAgAAAAAAAAAA/AEAAAAB+/////8AAAAAAP////8AAAAAAAAAAAAAAAMAAAQ6AAAAbvwBAAAAAfsAAAAUAGEAYgByAGUAdgBzAGQAbwBjAGsBAAABAwAABDoAAAAAAAAAAAAABDoAAALIAAAABAAAAAIAAAABAAAAAvwAAAAA</TOOLBARSDOCKWIDGETS>
	</PRINCIPAL>
</CONFIG>
